SPARKNaCl/why3-z3/sparknacl-core.adb_458_25_range_check_1.smt2
;; produced by z3_gnatprove.drv ;;
(set-info :smt-lib-version 2.5)
(set-info :source |VC generated by SPARK 2014|)
(set-info :category industrial)
(set-info :status unknown)
;;; generated by SMT-LIB2 driver
;;; SMT-LIB2 driver: bit-vectors, common part
;;; SMT-LIB2: integer arithmetic
(declare-datatypes ()
  ((t__ref (t__refqtmk (t__content (_ BitVec 32))))))

(declare-sort byte 0)

(declare-datatypes ()
  ((byte__init_wrapper
   (byte__init_wrapperqtmk (rec__value byte)(us_attr__init Bool)))))

(declare-sort map1 0)

(declare-datatypes ()
  ((map__ref (map__refqtmk (map__content map1)))))

;; "has_bounds"
(declare-fun has_bounds (map1
  Int
  Int) Bool)

;; "get"
(declare-fun get (map1
  Int) byte__init_wrapper)

;; "slice"
(declare-fun slice (map1
  Int
  Int) map1)

;; "slice_eq"
(assert
  (forall ((a map1) (f Int) (l Int))
    (! (=> (has_bounds a f l) (= (slice a f l) a)) :pattern ((slice a f l)
    (has_bounds a f l)) )))

;; "slice_slice"
(assert
  (forall ((a map1) (f1 Int) (l1 Int) (f2 Int) (l2 Int))
    (! (=>
         (and (<= f1 f2) (<= l2 l1))
         (= (slice (slice a f1 l1) f2 l2) (slice a f2 l2))) :pattern (
    (slice
      (slice a f1 l1)
      f2
      l2)) )))

;; "slice_def"
(assert
  (forall ((a map1) (f Int) (l Int))
    (! (forall ((i Int))
         (! (=> (and (<= f i) (<= i l)) (= (get (slice a f l) i) (get a i))) :pattern (
         (get
           (slice a f l)
           i)) :pattern ((get a i)) )) :pattern ((slice a f l)) )))

;; "slice_has_bounds"
(assert
  (forall ((a map1) (f Int) (l Int))
    (! (has_bounds (slice a f l) f l) :pattern ((has_bounds
                                                  (slice a f l)
                                                  f
                                                  l)) )))

;; "to_rep"
(declare-fun to_rep (byte) (_ BitVec 8))

;; "of_rep"
(declare-fun of_rep ((_ BitVec 8)) byte)

;; "inversion_axiom"
(assert
  (forall ((x byte)) (! (= (of_rep (to_rep x)) x) :pattern ((to_rep x)) )))

;; "range_axiom"
(assert true)

;; "coerce_axiom"
(assert
  (forall ((x (_ BitVec 8)))
    (! (= (to_rep (of_rep x)) x) :pattern ((to_rep (of_rep x))) )))

(declare-sort map2 0)

(declare-datatypes ()
  ((map__ref1 (map__refqtmk1 (map__content1 map2)))))

;; "has_bounds"
(declare-fun has_bounds1 (map2
  Int
  Int) Bool)

;; "get"
(declare-fun get1 (map2
  Int) byte)

;; "convert"
(declare-fun convert (map1) map2)

;; "convert__def"
(assert
  (forall ((a map1))
    (forall ((temp___169 Int))
      (= (to_rep (of_rep (to_rep (rec__value (get a temp___169))))) (to_rep
                                                                    (get1
                                                                    (convert
                                                                    a)
                                                                    temp___169))))))

;; "convert"
(declare-fun convert1 (map2) map1)

;; "convert__def"
(assert
  (forall ((a map2))
    (let ((b (convert1 a)))
      (forall ((temp___170 Int))
        (and
          (= (us_attr__init
               (byte__init_wrapperqtmk
                 (of_rep (to_rep (get1 a temp___170)))
                 true)) (us_attr__init (get b temp___170)))
          (= (to_rep
               (rec__value
                 (byte__init_wrapperqtmk
                   (of_rep (to_rep (get1 a temp___170)))
                   true))) (to_rep (rec__value (get b temp___170)))))))))

(declare-const x0 (_ BitVec 32))

(declare-const x1 (_ BitVec 32))

(declare-const x2 (_ BitVec 32))

(declare-const x3 (_ BitVec 32))

(declare-const x4 (_ BitVec 32))

(declare-const x5 (_ BitVec 32))

(declare-const x6 (_ BitVec 32))

(declare-const x7 (_ BitVec 32))

(declare-const x8 (_ BitVec 32))

(declare-const x9 (_ BitVec 32))

(declare-const x10 (_ BitVec 32))

(declare-const x11 (_ BitVec 32))

(declare-const x12 (_ BitVec 32))

(declare-const x13 (_ BitVec 32))

(declare-const x14 (_ BitVec 32))

(declare-const x15 (_ BitVec 32))

(declare-const y map1)

;; "y'unused"
(define-fun yqtunused () map__ref
  (map__refqtmk y))

;; "x15'unused"
(define-fun x15qtunused () t__ref
  (t__refqtmk x15))

;; "x14'unused"
(define-fun x14qtunused () t__ref
  (t__refqtmk x14))

;; "x13'unused"
(define-fun x13qtunused () t__ref
  (t__refqtmk x13))

;; "x12'unused"
(define-fun x12qtunused () t__ref
  (t__refqtmk x12))

;; "x11'unused"
(define-fun x11qtunused () t__ref
  (t__refqtmk x11))

;; "x10'unused"
(define-fun x10qtunused () t__ref
  (t__refqtmk x10))

;; "x9'unused"
(define-fun x9qtunused () t__ref
  (t__refqtmk x9))

;; "x8'unused"
(define-fun x8qtunused () t__ref
  (t__refqtmk x8))

;; "x7'unused"
(define-fun x7qtunused () t__ref
  (t__refqtmk x7))

;; "x6'unused"
(define-fun x6qtunused () t__ref
  (t__refqtmk x6))

;; "x5'unused"
(define-fun x5qtunused () t__ref
  (t__refqtmk x5))

;; "x4'unused"
(define-fun x4qtunused () t__ref
  (t__refqtmk x4))

;; "x3'unused"
(define-fun x3qtunused () t__ref
  (t__refqtmk x3))

;; "x2'unused"
(define-fun x2qtunused () t__ref
  (t__refqtmk x2))

;; "x1'unused"
(define-fun x1qtunused () t__ref
  (t__refqtmk x1))

;; "x0'unused"
(define-fun x0qtunused () t__ref
  (t__refqtmk x0))

;; "Assume"
(assert true)

;; "Assume"
(assert true)

;; "Assume"
(assert true)

;; "Assume"
(assert true)

;; "Assume"
(assert true)

;; "Assume"
(assert true)

;; "Assume"
(assert true)

;; "Assume"
(assert true)

;; "Assume"
(assert true)

;; "Assume"
(assert true)

;; "Assume"
(assert true)

;; "Assume"
(assert true)

;; "Assume"
(assert true)

;; "Assume"
(assert true)

;; "Assume"
(assert true)

;; "Assume"
(assert true)

;; "Assume"
(assert (has_bounds y 0 63))

;; "map__content'result'unused"
(define-fun map__contentqtresultqtunused () map1
  y)

;; "Assert"
(assert
  (=> (<= 0 3) (and (and (<= 0 0) (<= 0 63)) (and (<= 0 3) (<= 3 63)))))

;; "temp___1767"
(define-fun temp___1767 () map1
  (slice y 0 3))

;; "slice'result'unused"
(define-fun sliceqtresultqtunused () map1
  temp___1767)

;; "temp___1768"
(define-fun temp___1768 () map2
  (convert temp___1767))

;; "convert'result'unused"
(define-fun convertqtresultqtunused () map2
  temp___1768)

;; "param__x'unused"
(define-fun param__xqtunused () map__ref1
  (map__refqtmk1 temp___1768))

;; "map__ref'mk'result'unused"
(define-fun map__refqtmkqtresultqtunused () map__ref1
  (map__refqtmk1 temp___1768))

;; "t__content'result'unused"
(define-fun t__contentqtresultqtunused () (_ BitVec 32)
  x0)

(declare-const param__x map2)

;; "param__x'unused"
(define-fun param__xqtunused1 () map__ref1
  (map__refqtmk1 param__x))

;; "H"
(assert (has_bounds1 param__x 0 3))

;; "H"
(assert true)

;; "H"
(assert true)

;; "map__content'result'unused"
(define-fun map__contentqtresultqtunused1 () map2
  param__x)

;; "temp___1773"
(define-fun temp___1773 () map1
  (convert1 param__x))

;; "convert'result'unused"
(define-fun convertqtresultqtunused1 () map1
  temp___1773)

(declare-const usf map1)

;; "H"
(assert true)

;; "H"
(assert true)

;; "H"
(assert true)

;; "H"
(assert
  (forall ((temp___1774 Int))
    (ite (and (<= 0 temp___1774) (<= temp___1774 3))
      (= (get usf temp___1774) (get temp___1773 temp___1774))
      (= (get usf temp___1774) (get y temp___1774)))))

;; "any'result'unused"
(define-fun anyqtresultqtunused () map1
  usf)

(declare-const y1 map1)

;; "y'unused"
(define-fun yqtunused1 () map__ref
  (map__refqtmk y1))

;; "H"
(assert (= y1 usf))

;; "map__content'result'unused"
(define-fun map__contentqtresultqtunused2 () map1
  y1)

;; "H"
(assert (<= 0 3))

;; Goal "def'vc"
;; File "sparknacl-core.adb", line 417, characters 0-0
(assert
  (not (<= 0 0)))

(check-sat)
